p cnf 3155 2846
c ind 1683 1684 1685 1686 1687 1688 1689 1690 1691 1692 0
c ind 1693 1694 1695 1696 1697 1698 1699 1700 1701 1702 0
c ind 1703 1704 1705 1706 1707 1144 1145 1146 1147 1148 0
c ind 1149 1150 1151 1152 1153 1154 1155 1156 1157 1158 0
c ind 1159 1160 1161 1162 1163 1164 1165 1166 1167 1168 0
c ind 1169 1170 1171 1172 1173 1174 1175 1176 1177 1178 0
c ind 1179 1180 1181 1182 1183 1184 1185 1186 1187 1188 0
c ind 1189 1190 1191 1192 1193 1194 1195 1196 1197 1198 0
c ind 1199 1200 1201 1202 1203 1204 1205 1206 1207 1208 0
c ind 1209 1210 1211 1212 1708 1709 1710 1711 1712 1713 0
c ind 1714 1715 1716 1717 1718 1719 1720 1721 1722 1723 0
c ind 1086 1777 1778 1779 1780 1781 1782 1724 1783 1725 0
c ind 1784 1785 1786 1726 1787 1727 1788 1789 1790 1040 0
c ind 1041 1042 1043 1044 1045 1046 1047 1048 1049 1728 0
c ind 1050 1729 1051 1730 1052 1731 1053 1054 1055 1056 0
c ind 1057 1058 1059 1060 1061 1062 1792 1732 1793 1794 0
c ind 1795 1796 1797 1733 1734 1798 1799 1735 1800 1736 0
c ind 1801 1802 1803 1804 1805 1806 1807 1737 1808 1809 0
c ind 1810 1811 1812 1813 1738 1814 1739 1815 1063 1064 0
c ind 1065 1740 1741 1066 1067 1068 1069 1070 1071 1072 0
c ind 1073 1074 1075 1076 1077 1078 1079 1080 1742 1791 0
c ind 1081 1743 1082 1744 1745 1083 1084 1085 991 992 0
c ind 993 994 995 996 997 998 1746 999 1000 1001 0
c ind 1002 1003 1004 1747 1005 1748 1006 1007 1749 1750 0
c ind 1008 1009 1010 1011 1012 1013 1014 1015 1751 1752 0
c ind 1016 1017 1018 1753 1019 1020 1021 1022 1023 1024 0
c ind 1025 1037 1026 1027 1028 1029 1030 1031 1032 1033 0
c ind 1754 1034 1035 1036 1755 1213 1756 1214 1215 1757 0
c ind 1758 1216 1217 1218 1219 1220 1221 1222 1223 1224 0
c ind 1225 1226 1227 1228 1229 1230 1231 1232 1233 1234 0
c ind 1235 1816 1817 1818 1819 1820 1821 1822 1823 1824 0
c ind 1825 1826 1827 1828 1829 1830 1831 1832 1833 1834 0
c ind 1835 1836 1837 1838 1839 1840 1841 1842 1843 1844 0
c ind 1845 1846 1847 1848 1849 1850 1851 1852 1038 1853 0
c ind 1854 1855 1856 1857 1858 1859 1860 1861 1087 1088 0
c ind 1089 1090 1091 1092 1093 1094 1095 1096 1097 1098 0
c ind 1099 1100 1101 1102 1103 1104 1105 1106 1107 1108 0
c ind 1109 1110 1111 1112 1113 1114 1115 1116 1039 1117 0
c ind 1118 1119 1120 1121 1122 1123 1124 1125 1126 1127 0
c ind 1128 1129 1130 1131 1132 1133 1134 1135 1136 1137 0
c ind 1138 1139 1140 1141 1142 1143 1639 1640 1641 1642 0
c ind 1643 1644 1645 1646 1647 1648 1649 1650 1651 1652 0
c ind 1653 1654 1655 1656 1657 1658 1659 1660 1661 1662 0
c ind 1663 1664 1665 1666 1667 1668 1669 1670 1671 1672 0
c ind 1673 1674 1675 1676 1677 1678 1679 1680 1681 1682 0
846 -847 955 0
846 -847 873 0
-846 847 0
-873 -955 -846 0
847 -848 -862 -872 0
-847 848 0
-847 862 0
-847 872 0
848 849 -853 0
-848 -849 0
-848 853 0
-850 -1052 849 0
-852 -1052 849 0
-851 -1052 849 0
-849 1052 0
-849 850 851 852 0
850 -1058 1059 1060 0
-850 1058 0
-850 -1060 0
-850 -1059 0
851 1058 1061 1062 0
-851 -1058 0
-851 -1062 0
-851 -1061 0
852 -1053 1054 1055 0
-852 1053 0
-852 -1055 0
-852 -1054 0
853 854 858 -1083 -1808 0
-853 1808 0
-853 -858 0
-853 1083 0
-853 -854 0
855 991 854 1084 1085 0
-854 -855 0
-854 -1085 0
-854 -991 0
-854 -1084 0
855 856 -994 0
855 856 857 -995 0
-855 -856 0
-855 -857 994 0
-855 994 995 0
856 992 -993 0
-856 -992 0
-856 993 0
857 1000 1001 0
857 1000 1008 1009 0
-857 -1000 0
-857 -1001 -1008 0
-857 -1001 -1009 0
859 1809 858 1810 1811 0
-858 -859 0
-858 -1811 0
-858 -1809 0
-858 -1810 0
859 860 -1814 0
859 860 861 -1815 0
-859 -860 0
-859 -861 1814 0
-859 1814 1815 0
860 1812 -1813 0
-860 -1812 0
-860 1813 0
861 1067 1068 0
861 1067 1075 1076 0
-861 -1067 0
-861 -1068 -1075 0
-861 -1068 -1076 0
862 -865 1861 0
862 -865 1854 0
862 863 -865 0
-862 865 0
-863 -1854 -862 -1861 0
863 -864 -1087 1088 0
-863 1087 0
-863 -1088 0
-863 864 0
864 1090 -1091 -1092 1093 0
-864 -1090 0
-864 -1093 0
-864 1092 0
-864 1091 0
865 866 -869 871 0
865 866 -869 1086 0
-865 869 0
-865 -866 0
-871 -1086 -865 0
-867 -868 866 -1843 0
-867 -868 866 -1844 0
-866 868 0
-866 867 0
-866 1843 1844 0
867 1846 1847 1848 1849 0
-867 -1849 0
-867 -1848 0
-867 -1846 0
-867 -1847 0
868 -1840 -1841 -1842 1845 0
-868 1842 0
-868 -1845 0
-868 1840 0
-868 1841 0
869 -870 -1115 -1162 0
-869 1115 0
-869 1162 0
-869 870 0
870 -1191 -1639 -1668 -1697 0
-870 1697 0
-870 1191 0
-870 1668 0
-870 1639 0
871 1232 1233 1234 0
-871 -1232 0
-871 -1234 0
-871 -1233 0
872 -1037 1039 0
872 -1038 -1791 0
872 -1037 -1038 0
872 1039 -1791 0
1038 -1039 -872 0
1037 1791 -872 0
873 -874 -902 -925 -946 0
-873 946 0
-873 874 0
-873 925 0
-873 902 0
874 892 -1634 0
874 875 892 0
-874 -892 0
-874 -875 1634 0
875 -876 -869 0
875 890 -869 0
869 -875 0
-875 876 -890 0
876 -877 -889 -1758 0
876 877 -878 -889 0
-876 889 0
-876 -877 1758 0
-876 877 878 0
877 1110 -1112 0
-877 -1110 0
-877 1112 0
878 -879 -1757 0
878 879 -880 0
-878 -879 1757 0
-878 879 880 0
879 1857 -1859 0
-879 -1857 0
-879 1859 0
880 881 866 888 0
880 881 866 -885 0
-866 -880 0
-880 -881 0
-880 885 -888 0
881 883 1086 -1833 0
881 882 1086 1833 0
-881 -1086 0
-881 -883 -1833 0
-881 -882 1833 0
882 -1754 -848 0
-882 1754 0
848 -882 0
883 -884 -1755 0
-882 883 884 0
-883 -884 1755 0
882 -883 884 0
884 1219 -1221 0
-884 -1219 0
-884 1221 0
-883 885 -886 0
883 -885 0
-885 886 0
886 887 -1232 0
886 887 -1233 0
886 887 -1234 0
-886 -887 0
-886 1232 1233 1234 0
887 1820 -1822 0
-887 -1820 0
-887 1822 0
887 888 -1086 0
888 -1086 1756 0
-888 1086 0
-887 -888 -1756 0
889 -1854 1861 0
-889 1854 0
-889 -1861 0
890 891 -1854 0
878 880 890 0
880 890 891 0
878 890 -1854 0
-880 -890 1854 0
-878 -890 -891 0
863 891 -1854 -1861 0
-891 1854 0
-891 1861 0
-863 -891 0
892 -893 1764 0
892 893 -1764 0
-892 -893 -1764 0
-892 893 1764 0
893 -894 -869 0
893 901 -869 0
869 -893 0
-893 894 -901 0
877 -889 894 -895 0
-877 -889 894 -1727 0
889 -894 0
877 -894 895 0
-877 -894 1727 0
-879 895 -1726 0
879 895 -896 0
-879 -895 1726 0
879 -895 896 0
896 899 866 0
896 -897 -848 866 0
-866 -896 0
848 -896 -899 0
-896 897 -899 0
897 898 -1039 1086 0
-886 897 898 -1039 0
-897 1039 0
-897 -898 0
886 -897 -1086 0
-884 898 -1833 0
-884 898 -1086 0
884 -898 0
-898 1086 1833 0
899 900 1725 0
887 899 900 0
899 900 1086 0
-899 -900 0
-887 -899 -1086 -1725 0
-898 900 1086 -1724 0
-886 -898 900 -1724 0
898 -900 0
-900 1724 0
886 -900 -1086 0
895 901 -1854 0
891 896 901 0
895 896 901 0
891 901 -1854 0
-891 -895 -901 0
-896 -901 1854 0
902 -869 903 912 920 0
-902 -920 0
-902 -912 0
869 -902 0
-902 -903 0
909 911 903 -1854 0
904 909 903 911 0
-903 -911 0
-903 -909 0
-903 -904 1854 0
904 905 866 908 0
904 905 866 -907 0
-866 -904 0
-904 -905 0
-904 907 -908 0
905 906 1086 -1833 0
848 905 1086 1833 0
-905 -1086 0
-905 -906 -1833 0
-905 1833 -848 0
884 906 -848 0
-884 906 -1728 0
848 884 -906 0
-884 -906 1728 0
-886 -906 907 0
886 -907 0
906 -907 0
887 908 -1086 0
908 -1086 1729 0
-908 1086 0
-887 -908 -1729 0
877 -889 909 910 0
-877 -889 909 -1731 0
889 -909 0
-877 -909 1731 0
877 -909 -910 0
-879 910 1730 0
879 904 910 0
-879 -910 -1730 0
879 -904 -910 0
-891 910 911 0
891 -911 0
-910 -911 0
914 1854 912 0
879 913 912 914 0
-912 -914 0
-912 -913 -1854 0
-879 -912 -1854 0
-877 913 -1745 1861 0
-913 1745 0
-913 -1861 0
877 -913 0
914 915 866 919 0
914 915 866 -918 0
-866 -914 0
-914 -915 0
-914 918 -919 0
915 917 1086 -1833 0
915 916 1086 1833 0
-915 -1086 0
-915 -917 -1833 0
-915 -916 1833 0
916 -1038 -848 0
-916 1038 0
848 -916 0
-884 917 -1742 0
884 -916 917 0
-884 -917 1742 0
884 916 -917 0
-886 -917 918 0
886 -918 0
917 -918 0
887 919 -1086 0
919 -1086 1743 0
-919 1086 0
-887 -919 -1743 0
913 -924 920 1744 0
913 921 920 -924 0
-920 924 0
-913 -920 0
-920 -921 -1744 0
877 921 1861 0
921 922 -1861 0
921 -923 -1861 0
-877 -921 1861 0
-921 -922 923 -1861 0
922 -1087 1088 0
-922 1087 0
-922 -1088 0
864 923 -1854 0
-923 1854 0
-864 -923 0
-879 924 -1854 0
921 924 -1854 0
-924 1854 0
879 -921 -924 0
925 -926 -936 -1617 0
925 926 -936 1617 0
-925 936 0
-925 926 -1617 0
-925 -926 1617 0
926 933 -869 0
926 927 -869 -930 0
869 -926 0
-926 -927 -933 0
-926 930 -933 0
927 929 1086 -1833 0
927 928 1086 1833 0
-927 -1086 0
-927 -929 -1833 0
-927 -928 1833 0
928 -1737 -848 0
-928 1737 0
848 -928 0
-884 929 -1738 0
884 -928 929 0
-884 -929 1738 0
884 928 -929 0
930 -931 932 0
-886 -929 930 -931 0
-930 931 0
886 -930 -932 0
929 -930 -932 0
924 931 866 0
-866 -931 0
-924 -931 0
887 932 -1086 0
932 -1086 1739 0
-932 1086 0
-887 -932 -1739 0
877 933 934 0
889 933 934 0
933 934 1741 0
-933 -934 0
-877 -889 -933 -1741 0
-879 934 -935 -1740 0
-934 1740 0
879 -934 0
-934 935 0
-921 935 -1854 0
-935 1854 0
921 -935 0
936 -937 -939 1597 0
936 937 -939 -1597 0
-936 939 0
-936 937 1597 0
-936 -937 -1597 0
937 -938 -862 0
862 -937 0
-937 938 0
938 -1715 -853 1717 0
-938 1715 0
-938 -1717 0
853 -938 0
939 940 -862 -943 0
939 -940 -862 -942 0
862 -939 0
-940 942 -939 0
940 943 -939 0
940 1021 -1086 0
940 941 1021 0
940 1021 -1833 0
-940 -1021 0
-940 -941 1086 1833 0
941 1834 1835 1836 1837 0
-941 -1837 0
-941 -1836 0
-941 -1834 0
-941 -1835 0
942 -1723 -1753 0
938 942 -1753 0
-942 1753 0
-938 -942 1723 0
943 945 -853 -1721 0
943 944 -853 945 0
853 -943 0
-943 -945 0
-943 -944 1721 0
944 -1715 1717 0
-944 1715 0
-944 -1717 0
-849 945 1715 0
945 1715 1752 1782 0
-945 -1715 0
-945 -1752 849 0
-945 -1782 849 0
946 -947 -1626 0
946 947 1626 0
-946 -947 1626 0
-946 947 -1626 0
947 953 -869 0
947 948 -869 -951 0
869 -947 0
-947 -948 -953 0
-947 951 -953 0
948 950 1086 -1833 0
948 949 1086 1833 0
-948 -1086 0
-948 -950 -1833 0
-948 -949 1833 0
949 -1746 -848 0
-949 1746 0
848 -949 0
-884 950 -1747 0
884 -949 950 0
-884 -950 1747 0
884 949 -950 0
-931 951 952 0
-886 -931 -950 951 0
931 -951 0
886 -951 -952 0
950 -951 -952 0
887 952 -1086 0
952 -1086 1748 0
-952 1086 0
-887 -952 -1748 0
877 953 954 0
889 953 954 0
953 954 1750 0
-953 -954 0
-877 -889 -953 -1750 0
-879 -935 954 -1749 0
-954 1749 0
879 -954 0
935 -954 0
955 -956 966 -1612 0
955 956 966 1612 0
-955 -966 0
-955 956 -1612 0
-955 -956 1612 0
956 -957 -869 0
956 965 -869 0
869 -956 0
-956 957 -965 0
877 -889 957 -958 0
-877 -889 957 -1736 0
889 -957 0
877 -957 958 0
-877 -957 1736 0
-879 958 -1735 0
879 958 -959 0
-879 -958 1735 0
879 -958 959 0
959 960 866 964 0
959 960 866 -963 0
-866 -959 0
-959 -960 0
-959 963 -964 0
960 962 1086 -1833 0
960 961 1086 1833 0
-960 -1086 0
-960 -962 -1833 0
-960 -961 1833 0
961 -1732 -848 0
-961 1732 0
848 -961 0
-884 962 -1733 0
884 -961 962 0
-884 -962 1733 0
884 961 -962 0
-886 -962 963 0
886 -963 0
962 -963 0
887 964 -1086 0
964 -1086 1734 0
-964 1086 0
-887 -964 -1734 0
958 965 -1854 0
891 959 965 0
958 959 965 0
891 965 -1854 0
-891 -958 -965 0
-959 -965 1854 0
875 966 -1634 0
-966 1634 0
-875 -966 0
973 -847 967 0
968 -847 967 0
847 -967 0
-967 -968 -973 0
968 -969 -970 2505 0
-875 968 -969 -970 0
-968 970 0
-968 969 0
875 -2505 -968 0
969 -939 -902 0
902 -969 0
939 -969 0
893 970 -971 -972 2635 0
-893 970 -971 -972 -2635 0
-970 972 0
893 -2635 -970 0
-970 971 0
-893 2635 -970 0
-926 947 971 -2488 0
926 947 971 2488 0
926 971 2488 -2497 0
-926 971 -2488 -2497 0
926 -2488 -971 0
-926 2488 -971 0
-947 2497 -971 0
937 972 -2468 2497 0
-937 -947 972 2468 0
937 -947 972 -2468 0
-937 972 2468 2497 0
-937 -2468 -972 0
937 2468 -972 0
947 -2497 -972 0
875 -956 973 -2483 0
956 973 2483 -2505 0
-956 973 -2483 -2505 0
875 956 973 2483 0
-956 2483 -973 0
956 -2483 -973 0
-875 2505 -973 0
-956 974 -847 0
873 974 -847 0
-966 974 -847 0
847 -974 0
-873 956 966 -974 0
-947 975 -847 0
975 976 -847 0
902 975 -847 0
847 -975 0
947 -975 -902 -976 0
-925 976 -977 0
925 -976 0
-976 977 0
-874 966 977 0
874 -977 0
-966 -977 0
-926 978 -847 0
978 979 -847 0
977 978 -847 0
847 -978 0
926 -977 -978 -979 0
-936 979 -902 0
902 -979 0
936 -979 0
-875 980 -847 0
980 981 -847 0
847 -980 0
875 -980 -981 0
892 -979 981 0
-892 -981 0
979 -981 0
-893 982 -847 0
979 982 -847 0
847 -982 0
893 -979 -982 0
969 983 -847 0
937 983 -847 0
847 -983 0
-937 -983 -969 0
969 984 -847 0
847 -984 0
-969 -984 0
956 985 -847 0
873 985 -847 0
-966 985 -847 0
847 -985 0
-873 -956 966 -985 0
976 986 -847 0
902 986 -847 0
947 986 -847 0
847 -986 0
-947 -976 -902 -986 0
979 987 -847 0
926 987 -847 0
977 987 -847 0
847 -987 0
-926 -977 -979 -987 0
981 988 -847 0
875 988 -847 0
847 -988 0
-875 -981 -988 0
979 989 -847 0
893 989 -847 0
847 -989 0
-893 -979 -989 0
-937 990 -847 0
969 990 -847 0
847 -990 0
937 -990 -969 0
1 846 0
-1 -846 0
2 846 0
-2 -846 0
3 967 0
-3 -967 0
99 -974 0
-99 974 0
100 -975 0
-100 975 0
101 -978 0
-101 978 0
102 -980 0
-102 980 0
111 -982 0
-111 982 0
134 -983 0
-134 983 0
327 -984 0
-327 984 0
520 -985 0
-520 985 0
521 -986 0
-521 986 0
522 -987 0
-522 987 0
523 -988 0
-523 988 0
532 -989 0
-532 989 0
555 -990 0
-555 990 0
748 -984 0
-748 984 0
-99 -520 2829 0
99 -2829 0
520 -2829 0
99 -1612 0
-99 1612 0
-100 -521 2830 0
100 -2830 0
521 -2830 0
100 -1626 0
-100 1626 0
-101 -522 2831 0
101 -2831 0
522 -2831 0
101 -1617 0
-101 1617 0
-102 -523 2832 0
102 -2832 0
523 -2832 0
102 -1634 0
-102 1634 0
-111 -532 2841 0
111 -2841 0
532 -2841 0
111 -1764 0
-111 1764 0
-134 -555 2864 0
134 -2864 0
555 -2864 0
134 -1597 0
-134 1597 0
-327 -748 3057 0
327 -3057 0
748 -3057 0
327 -1337 0
-327 1337 0
-1 0
-2 0
3 0
4 0
5 0
6 0
7 0
8 0
9 0
10 0
11 0
12 0
13 0
14 0
15 0
16 0
17 0
18 0
19 0
20 0
21 0
22 0
23 0
24 0
25 0
26 0
27 0
28 0
29 0
30 0
31 0
32 0
33 0
34 0
35 0
36 0
37 0
38 0
39 0
40 0
41 0
42 0
43 0
44 0
45 0
46 0
47 0
48 0
49 0
50 0
51 0
52 0
53 0
54 0
55 0
56 0
57 0
58 0
59 0
60 0
61 0
62 0
63 0
64 0
65 0
66 0
67 0
68 0
69 0
70 0
71 0
72 0
73 0
74 0
75 0
76 0
77 0
78 0
79 0
80 0
81 0
82 0
83 0
84 0
85 0
86 0
87 0
88 0
89 0
90 0
91 0
92 0
93 0
94 0
95 0
96 0
97 0
98 0
103 0
104 0
105 0
106 0
107 0
108 0
109 0
110 0
112 0
113 0
114 0
115 0
116 0
117 0
118 0
119 0
120 0
121 0
122 0
123 0
124 0
125 0
126 0
127 0
128 0
129 0
130 0
131 0
132 0
133 0
135 0
136 0
137 0
138 0
139 0
140 0
141 0
142 0
143 0
144 0
145 0
146 0
147 0
148 0
149 0
150 0
151 0
152 0
153 0
154 0
155 0
156 0
157 0
158 0
159 0
160 0
161 0
162 0
163 0
164 0
165 0
166 0
167 0
168 0
169 0
170 0
171 0
172 0
173 0
174 0
175 0
176 0
177 0
178 0
179 0
180 0
181 0
182 0
183 0
184 0
185 0
186 0
187 0
188 0
189 0
190 0
191 0
192 0
193 0
194 0
195 0
196 0
197 0
198 0
199 0
200 0
201 0
202 0
203 0
204 0
205 0
206 0
207 0
208 0
209 0
210 0
211 0
212 0
213 0
214 0
215 0
216 0
217 0
218 0
219 0
220 0
221 0
222 0
223 0
224 0
225 0
226 0
227 0
228 0
229 0
230 0
231 0
232 0
233 0
234 0
235 0
236 0
237 0
238 0
239 0
240 0
241 0
242 0
243 0
244 0
245 0
246 0
247 0
248 0
249 0
250 0
251 0
252 0
253 0
254 0
255 0
256 0
257 0
258 0
259 0
260 0
261 0
262 0
263 0
264 0
265 0
266 0
267 0
268 0
269 0
270 0
271 0
272 0
-273 0
274 0
275 0
276 0
277 0
278 0
279 0
280 0
281 0
282 0
283 0
284 0
285 0
286 0
287 0
288 0
289 0
290 0
291 0
292 0
293 0
294 0
295 0
296 0
297 0
298 0
299 0
300 0
301 0
302 0
303 0
304 0
305 0
306 0
307 0
308 0
309 0
310 0
311 0
312 0
313 0
314 0
315 0
316 0
317 0
318 0
319 0
320 0
321 0
322 0
323 0
324 0
325 0
326 0
-327 0
328 0
329 0
330 0
331 0
332 0
333 0
334 0
335 0
-336 0
337 0
338 0
339 0
340 0
341 0
342 0
343 0
344 0
345 0
346 0
347 0
348 0
349 0
350 0
351 0
352 0
353 0
354 0
355 0
356 0
357 0
358 0
359 0
360 0
361 0
362 0
363 0
-364 0
365 0
366 0
367 0
368 0
369 0
370 0
371 0
372 0
373 0
374 0
375 0
376 0
377 0
378 0
379 0
380 0
381 0
382 0
383 0
384 0
385 0
386 0
387 0
388 0
389 0
390 0
391 0
392 0
393 0
394 0
395 0
396 0
397 0
398 0
399 0
400 0
401 0
402 0
403 0
404 0
405 0
406 0
407 0
408 0
409 0
410 0
411 0
412 0
413 0
414 0
415 0
416 0
417 0
418 0
419 0
420 0
421 0
422 0
423 0
424 0
-425 0
-426 0
-427 0
-428 0
-429 0
-430 0
-431 0
-432 0
-433 0
-434 0
-435 0
-436 0
-437 0
-438 0
-439 0
-440 0
-441 0
-442 0
-443 0
-444 0
-445 0
-446 0
-447 0
-448 0
-449 0
-450 0
-451 0
-452 0
-453 0
-454 0
-455 0
-456 0
-457 0
-458 0
-459 0
-460 0
-461 0
-462 0
-463 0
-464 0
-465 0
-466 0
-467 0
-468 0
-469 0
-470 0
-471 0
-472 0
-473 0
-474 0
-475 0
-476 0
-477 0
-478 0
-479 0
-480 0
-481 0
-482 0
-483 0
-484 0
-485 0
-486 0
-487 0
-488 0
-489 0
-490 0
-491 0
-492 0
-493 0
-494 0
-495 0
-496 0
-497 0
-498 0
-499 0
-500 0
-501 0
-502 0
-503 0
-504 0
-505 0
-506 0
-507 0
-508 0
-509 0
-510 0
-511 0
-512 0
-513 0
-514 0
-515 0
-516 0
-517 0
-518 0
-519 0
-524 0
-525 0
-526 0
-527 0
-528 0
-529 0
-530 0
-531 0
-533 0
-534 0
-535 0
-536 0
-537 0
-538 0
-539 0
-540 0
-541 0
-542 0
-543 0
-544 0
-545 0
-546 0
-547 0
-548 0
-549 0
-550 0
-551 0
-552 0
-553 0
-554 0
-556 0
-557 0
-558 0
-559 0
-560 0
-561 0
-562 0
-563 0
-564 0
-565 0
-566 0
-567 0
-568 0
-569 0
-570 0
-571 0
-572 0
-573 0
-574 0
-575 0
-576 0
-577 0
-578 0
-579 0
-580 0
-581 0
-582 0
-583 0
-584 0
-585 0
-586 0
-587 0
-588 0
-589 0
-590 0
-591 0
-592 0
-593 0
-594 0
-595 0
-596 0
-597 0
-598 0
-599 0
-600 0
-601 0
-602 0
-603 0
-604 0
-605 0
-606 0
-607 0
-608 0
-609 0
-610 0
-611 0
-612 0
-613 0
-614 0
-615 0
-616 0
-617 0
-618 0
-619 0
-620 0
-621 0
-622 0
-623 0
-624 0
-625 0
-626 0
-627 0
-628 0
-629 0
-630 0
-631 0
-632 0
-633 0
-634 0
-635 0
-636 0
-637 0
-638 0
-639 0
-640 0
-641 0
-642 0
-643 0
-644 0
-645 0
-646 0
-647 0
-648 0
-649 0
-650 0
-651 0
-652 0
-653 0
-654 0
-655 0
-656 0
-657 0
-658 0
-659 0
-660 0
-661 0
-662 0
-663 0
-664 0
-665 0
-666 0
-667 0
-668 0
-669 0
-670 0
-671 0
-672 0
-673 0
-674 0
-675 0
-676 0
-677 0
-678 0
-679 0
-680 0
-681 0
-682 0
-683 0
-684 0
-685 0
-686 0
-687 0
-688 0
-689 0
-690 0
-691 0
-692 0
-693 0
694 0
-695 0
-696 0
-697 0
-698 0
-699 0
-700 0
-701 0
-702 0
-703 0
-704 0
-705 0
-706 0
-707 0
-708 0
-709 0
-710 0
-711 0
-712 0
-713 0
-714 0
-715 0
-716 0
-717 0
-718 0
-719 0
-720 0
-721 0
-722 0
-723 0
-724 0
-725 0
-726 0
-727 0
-728 0
-729 0
-730 0
-731 0
-732 0
-733 0
-734 0
-735 0
-736 0
-737 0
-738 0
-739 0
-740 0
-741 0
-742 0
-743 0
-744 0
-745 0
-746 0
-747 0
-748 0
-749 0
-750 0
-751 0
-752 0
-753 0
-754 0
-755 0
-756 0
757 0
-758 0
-759 0
-760 0
-761 0
-762 0
-763 0
-764 0
-765 0
-766 0
-767 0
-768 0
-769 0
-770 0
-771 0
-772 0
-773 0
-774 0
-775 0
-776 0
-777 0
-778 0
-779 0
-780 0
-781 0
-782 0
-783 0
-784 0
785 0
-786 0
-787 0
-788 0
-789 0
-790 0
-791 0
-792 0
-793 0
-794 0
-795 0
-796 0
-797 0
-798 0
-799 0
-800 0
-801 0
-802 0
-803 0
-804 0
-805 0
-806 0
-807 0
-808 0
-809 0
-810 0
-811 0
-812 0
-813 0
-814 0
-815 0
-816 0
-817 0
-818 0
-819 0
-820 0
-821 0
-822 0
-823 0
-824 0
-825 0
-826 0
-827 0
-828 0
-829 0
-830 0
-831 0
-832 0
-833 0
-834 0
-835 0
-836 0
-837 0
-838 0
-839 0
-840 0
-841 0
-842 0
-843 0
-844 0
-845 0
846 0
847 0
848 0
-849 0
853 0
-854 0
-858 0
862 0
865 0
-866 0
869 0
870 0
872 0
902 0
-903 0
-912 0
-920 0
939 0
-967 0
968 0
969 0
970 0
971 0
972 0
973 0
-984 0
1083 0
1115 0
1162 0
1191 0
1236 0
1237 0
1238 0
1239 0
1240 0
1241 0
1242 0
1243 0
1244 0
1245 0
1246 0
1247 0
1248 0
1249 0
1250 0
1251 0
1252 0
1253 0
1254 0
1255 0
1256 0
1257 0
1258 0
1259 0
1260 0
1261 0
1262 0
1263 0
1264 0
1265 0
1266 0
1267 0
1268 0
1269 0
1270 0
1271 0
1272 0
1273 0
1274 0
1275 0
1276 0
1277 0
1278 0
1279 0
1280 0
-1281 0
1282 0
1283 0
1284 0
1285 0
1286 0
1287 0
1288 0
1289 0
1290 0
1291 0
1292 0
1293 0
1294 0
1295 0
1296 0
1297 0
1298 0
1299 0
1300 0
1301 0
1302 0
1303 0
1304 0
1305 0
1306 0
1307 0
1308 0
-1309 0
1310 0
1311 0
1312 0
1313 0
1314 0
1315 0
1316 0
1317 0
1318 0
1319 0
1320 0
1321 0
1322 0
1323 0
1324 0
1325 0
1326 0
1327 0
1328 0
1329 0
1330 0
1331 0
1332 0
1333 0
1334 0
1335 0
1336 0
-1337 0
1338 0
1339 0
1340 0
1341 0
1342 0
1343 0
1344 0
1345 0
1346 0
1347 0
1348 0
1349 0
1350 0
1351 0
1352 0
1353 0
1354 0
1355 0
1356 0
1357 0
1358 0
1359 0
1360 0
1361 0
1362 0
1363 0
1364 0
1365 0
1366 0
1367 0
1368 0
1369 0
1370 0
1371 0
1372 0
1373 0
1374 0
1375 0
1376 0
1377 0
1378 0
1379 0
1380 0
1381 0
1382 0
1383 0
1384 0
1385 0
1386 0
1387 0
1388 0
1389 0
1390 0
1391 0
1392 0
1393 0
1394 0
1395 0
1396 0
1397 0
1398 0
1399 0
1400 0
1401 0
1402 0
1403 0
1404 0
1405 0
1406 0
1407 0
1408 0
1409 0
1410 0
1411 0
1412 0
1413 0
1414 0
1415 0
1416 0
1417 0
1418 0
1419 0
1420 0
1421 0
1422 0
1423 0
1424 0
1425 0
1426 0
1427 0
1428 0
1429 0
1430 0
1431 0
1432 0
1433 0
1434 0
1435 0
1436 0
1437 0
1438 0
1439 0
1440 0
1441 0
1442 0
1443 0
1444 0
1445 0
1446 0
1447 0
1448 0
1449 0
1450 0
1451 0
1452 0
1453 0
1454 0
1455 0
1456 0
1457 0
1458 0
1459 0
1460 0
1461 0
1462 0
1463 0
1464 0
1465 0
1466 0
1467 0
1468 0
1469 0
1470 0
1471 0
1472 0
1473 0
1474 0
1475 0
1476 0
1477 0
1478 0
1479 0
1480 0
1481 0
1482 0
1483 0
1484 0
1485 0
1486 0
1487 0
1488 0
1489 0
1490 0
1491 0
1492 0
1493 0
1494 0
1495 0
1496 0
1497 0
1498 0
1499 0
1500 0
1501 0
1502 0
1503 0
1504 0
1505 0
1506 0
1507 0
1508 0
1509 0
1510 0
1511 0
1512 0
1513 0
1514 0
1515 0
1516 0
1517 0
1518 0
1519 0
1520 0
1521 0
1522 0
1523 0
1524 0
1525 0
1526 0
1527 0
1528 0
1529 0
1530 0
1531 0
1532 0
1533 0
1534 0
1535 0
1536 0
1537 0
1538 0
1539 0
1540 0
1541 0
1542 0
1543 0
1544 0
1545 0
1546 0
1547 0
1548 0
1549 0
1550 0
1551 0
1552 0
1553 0
1554 0
1555 0
1556 0
1557 0
1558 0
1559 0
1560 0
1561 0
1562 0
1563 0
1564 0
1565 0
1566 0
1567 0
1568 0
1569 0
1570 0
1571 0
1572 0
1573 0
1574 0
1575 0
1576 0
1577 0
1578 0
1579 0
1580 0
1581 0
1582 0
1583 0
1584 0
1585 0
1586 0
1587 0
1588 0
1589 0
1590 0
1591 0
1592 0
1593 0
1594 0
1595 0
1596 0
1598 0
1599 0
1600 0
1601 0
1602 0
1603 0
1604 0
1605 0
1606 0
1607 0
1608 0
1609 0
1610 0
1611 0
1613 0
1614 0
1615 0
1616 0
1618 0
1619 0
1620 0
1621 0
1622 0
1623 0
1624 0
1625 0
1627 0
1628 0
1629 0
1630 0
1631 0
1632 0
1633 0
1635 0
1636 0
1637 0
1638 0
1639 0
1668 0
1697 0
-1759 0
1760 0
1761 0
1762 0
1763 0
1765 0
1766 0
1767 0
1768 0
1769 0
1770 0
1771 0
1772 0
1773 0
1774 0
1775 0
1776 0
1808 0
2733 0
-2734 0
-2735 0
-2736 0
-2737 0
-2738 0
-2739 0
-2740 0
-2741 0
-2742 0
-2743 0
-2744 0
-2745 0
-2746 0
-2747 0
-2748 0
-2749 0
-2750 0
-2751 0
-2752 0
-2753 0
-2754 0
-2755 0
-2756 0
-2757 0
-2758 0
-2759 0
-2760 0
-2761 0
-2762 0
-2763 0
-2764 0
-2765 0
-2766 0
-2767 0
-2768 0
-2769 0
-2770 0
-2771 0
-2772 0
-2773 0
-2774 0
-2775 0
-2776 0
-2777 0
-2778 0
-2779 0
-2780 0
-2781 0
-2782 0
-2783 0
-2784 0
-2785 0
-2786 0
-2787 0
-2788 0
-2789 0
-2790 0
-2791 0
-2792 0
-2793 0
-2794 0
-2795 0
-2796 0
-2797 0
-2798 0
-2799 0
-2800 0
-2801 0
-2802 0
-2803 0
-2804 0
-2805 0
-2806 0
-2807 0
-2808 0
-2809 0
-2810 0
-2811 0
-2812 0
-2813 0
-2814 0
-2815 0
-2816 0
-2817 0
-2818 0
-2819 0
-2820 0
-2821 0
-2822 0
-2823 0
-2824 0
-2825 0
-2826 0
-2827 0
-2828 0
-2833 0
-2834 0
-2835 0
-2836 0
-2837 0
-2838 0
-2839 0
-2840 0
-2842 0
-2843 0
-2844 0
-2845 0
-2846 0
-2847 0
-2848 0
-2849 0
-2850 0
-2851 0
-2852 0
-2853 0
-2854 0
-2855 0
-2856 0
-2857 0
-2858 0
-2859 0
-2860 0
-2861 0
-2862 0
-2863 0
-2865 0
-2866 0
-2867 0
-2868 0
-2869 0
-2870 0
-2871 0
-2872 0
-2873 0
-2874 0
-2875 0
-2876 0
-2877 0
-2878 0
-2879 0
-2880 0
-2881 0
-2882 0
-2883 0
-2884 0
-2885 0
-2886 0
-2887 0
-2888 0
-2889 0
-2890 0
-2891 0
-2892 0
-2893 0
-2894 0
-2895 0
-2896 0
-2897 0
-2898 0
-2899 0
-2900 0
-2901 0
-2902 0
-2903 0
-2904 0
-2905 0
-2906 0
-2907 0
-2908 0
-2909 0
-2910 0
-2911 0
-2912 0
-2913 0
-2914 0
-2915 0
-2916 0
-2917 0
-2918 0
-2919 0
-2920 0
-2921 0
-2922 0
-2923 0
-2924 0
-2925 0
-2926 0
-2927 0
-2928 0
-2929 0
-2930 0
-2931 0
-2932 0
-2933 0
-2934 0
-2935 0
-2936 0
-2937 0
-2938 0
-2939 0
-2940 0
-2941 0
-2942 0
-2943 0
-2944 0
-2945 0
-2946 0
-2947 0
-2948 0
-2949 0
-2950 0
-2951 0
-2952 0
-2953 0
-2954 0
-2955 0
-2956 0
-2957 0
-2958 0
-2959 0
-2960 0
-2961 0
-2962 0
-2963 0
-2964 0
-2965 0
-2966 0
-2967 0
-2968 0
-2969 0
-2970 0
-2971 0
-2972 0
-2973 0
-2974 0
-2975 0
-2976 0
-2977 0
-2978 0
-2979 0
-2980 0
-2981 0
-2982 0
-2983 0
-2984 0
-2985 0
-2986 0
-2987 0
-2988 0
-2989 0
-2990 0
-2991 0
-2992 0
-2993 0
-2994 0
-2995 0
-2996 0
-2997 0
-2998 0
-2999 0
-3000 0
-3001 0
-3002 0
-3003 0
-3004 0
-3005 0
-3006 0
-3007 0
-3008 0
-3009 0
-3010 0
-3011 0
-3012 0
-3013 0
-3014 0
-3015 0
-3016 0
-3017 0
-3018 0
-3019 0
-3020 0
-3021 0
-3022 0
-3023 0
-3024 0
-3025 0
-3026 0
-3027 0
-3028 0
-3029 0
-3030 0
-3031 0
-3032 0
-3033 0
-3034 0
-3035 0
-3036 0
-3037 0
-3038 0
-3039 0
-3040 0
-3041 0
-3042 0
-3043 0
-3044 0
-3045 0
-3046 0
-3047 0
-3048 0
-3049 0
-3050 0
-3051 0
-3052 0
-3053 0
-3054 0
-3055 0
-3056 0
-3057 0
-3058 0
-3059 0
-3060 0
-3061 0
-3062 0
-3063 0
-3064 0
-3065 0
-3066 0
-3067 0
-3068 0
-3069 0
-3070 0
-3071 0
-3072 0
-3073 0
-3074 0
-3075 0
-3076 0
-3077 0
-3078 0
-3079 0
-3080 0
-3081 0
-3082 0
-3083 0
-3084 0
-3085 0
-3086 0
-3087 0
-3088 0
-3089 0
-3090 0
-3091 0
-3092 0
-3093 0
-3094 0
-3095 0
-3096 0
-3097 0
-3098 0
-3099 0
-3100 0
-3101 0
-3102 0
-3103 0
-3104 0
-3105 0
-3106 0
-3107 0
-3108 0
-3109 0
-3110 0
-3111 0
-3112 0
-3113 0
-3114 0
-3115 0
-3116 0
-3117 0
-3118 0
-3119 0
-3120 0
-3121 0
-3122 0
-3123 0
-3124 0
-3125 0
-3126 0
-3127 0
-3128 0
-3129 0
-3130 0
-3131 0
-3132 0
-3133 0
-3134 0
-3135 0
-3136 0
-3137 0
-3138 0
-3139 0
-3140 0
-3141 0
-3142 0
-3143 0
-3144 0
-3145 0
-3146 0
-3147 0
-3148 0
-3149 0
-3150 0
-3151 0
-3152 0
-3153 0
-3154 0
-2554 0
-2555 0
-2556 0
-2557 0
-2558 0
-2559 0
-2560 0
-2561 0
-2562 0
-2563 0
-2564 0
-2565 0
-2566 0
-2567 0
-2568 0
-2569 0
-2570 0
-2571 0
-2572 0
-2573 0
-2574 0
-2575 0
-2576 0
-2577 0
-2578 0
-2015 0
-2016 0
-2017 0
-2018 0
-2019 0
-2020 0
-2021 0
-2022 0
-2023 0
-2024 0
-2025 0
-2026 0
-2027 0
-2028 0
-2029 0
-2030 0
-2031 0
-2032 0
-2033 0
-2034 0
-2035 0
-2036 0
-2037 0
-2038 0
-2039 0
-2040 0
-2041 0
-2042 0
-2043 0
-2044 0
-2045 0
-2046 0
-2047 0
-2048 0
-2049 0
-2050 0
-2051 0
-2052 0
-2053 0
-2054 0
-2055 0
-2056 0
-2057 0
-2058 0
-2059 0
-2060 0
-2061 0
-2062 0
-2063 0
-2064 0
-2065 0
-2066 0
-2067 0
-2068 0
-2069 0
-2070 0
-2071 0
-2072 0
-2073 0
-2074 0
-2075 0
-2076 0
-2077 0
-2078 0
-2079 0
-2080 0
-2081 0
-2082 0
-2083 0
-2579 0
-2580 0
-2581 0
-2582 0
-2583 0
-2584 0
-2585 0
-2586 0
-2587 0
-2588 0
-2589 0
-2590 0
-2591 0
-2592 0
-2593 0
-2594 0
-1957 0
-2648 0
-2649 0
-2650 0
-2651 0
-2652 0
-2653 0
-2595 0
-2654 0
-2596 0
-2655 0
-2656 0
-2657 0
-2597 0
-2658 0
-2598 0
-2659 0
-2660 0
-2661 0
-1911 0
-1912 0
-1913 0
-1914 0
-1915 0
-1916 0
-1917 0
-1918 0
-1919 0
-1920 0
-2599 0
-1921 0
-2600 0
-1922 0
-2601 0
-1923 0
-2602 0
-1924 0
-1925 0
-1926 0
-1927 0
-1928 0
-1929 0
-1930 0
-1931 0
-1932 0
-1933 0
-2663 0
-2603 0
-2664 0
-2665 0
-2666 0
-2667 0
-2668 0
-2604 0
-2605 0
-2669 0
-2670 0
-2606 0
-2671 0
-2607 0
-2672 0
-2673 0
-2674 0
-2675 0
-2676 0
-2677 0
-2678 0
-2608 0
-2679 0
-2680 0
-2681 0
-2682 0
-2683 0
-2684 0
-2609 0
-2685 0
-2610 0
-2686 0
-1934 0
-1935 0
-1936 0
-2611 0
-2612 0
-1937 0
-1938 0
-1939 0
-1940 0
-1941 0
-1942 0
-1943 0
-1944 0
-1945 0
-1946 0
-1947 0
-1948 0
-1949 0
-1950 0
-1951 0
-2613 0
-2662 0
-1952 0
-2614 0
-1953 0
-2615 0
-2616 0
-1954 0
-1955 0
-1956 0
-1862 0
-1863 0
-1864 0
-1865 0
-1866 0
-1867 0
-1868 0
-1869 0
-2617 0
-1870 0
-1871 0
-1872 0
-1873 0
-1874 0
-1875 0
-2618 0
-1876 0
-2619 0
-1877 0
-1878 0
-2620 0
-2621 0
-1879 0
-1880 0
-1881 0
-1882 0
-1883 0
-1884 0
-1885 0
-1886 0
-2622 0
-2623 0
-1887 0
-1888 0
-1889 0
-2624 0
-1890 0
-1891 0
-1892 0
-1893 0
-1894 0
-1895 0
-1896 0
-1908 0
-1897 0
-1898 0
-1899 0
-1900 0
-1901 0
-1902 0
-1903 0
-1904 0
-2625 0
-1905 0
-1906 0
-1907 0
-2626 0
-2084 0
-2627 0
-2085 0
-2086 0
-2628 0
-2629 0
-2087 0
-2088 0
-2089 0
-2090 0
-2091 0
-2092 0
-2093 0
-2094 0
-2095 0
-2096 0
-2097 0
-2098 0
-2099 0
-2100 0
-2101 0
-2102 0
-2103 0
-2104 0
-2105 0
-2106 0
-2687 0
-2688 0
-2689 0
-2690 0
-2691 0
-2692 0
-2693 0
-2694 0
-2695 0
-2696 0
-2697 0
-2698 0
-2699 0
-2700 0
-2701 0
-2702 0
-2703 0
-2704 0
-2705 0
-2706 0
-2707 0
-2708 0
-2709 0
-2710 0
-2711 0
-2712 0
-2713 0
-2714 0
-2715 0
-2716 0
-2717 0
-2718 0
-2719 0
-2720 0
-2721 0
-2722 0
-2723 0
-1909 0
-2724 0
-2725 0
-2726 0
-2727 0
-2728 0
-2729 0
-2730 0
-2731 0
-2732 0
-1958 0
-1959 0
-1960 0
-1961 0
-1962 0
-1963 0
-1964 0
-1965 0
-1966 0
-1967 0
-1968 0
-1969 0
-1970 0
-1971 0
-1972 0
-1973 0
-1974 0
-1975 0
-1976 0
-1977 0
-1978 0
-1979 0
-1980 0
-1981 0
-1982 0
-1983 0
-1984 0
-1985 0
-1986 0
-1987 0
-1910 0
-1988 0
-1989 0
-1990 0
-1991 0
-1992 0
-1993 0
-1994 0
-1995 0
-1996 0
-1997 0
-1998 0
-1999 0
-2000 0
-2001 0
-2002 0
-2003 0
-2004 0
-2005 0
-2006 0
-2007 0
-2008 0
-2009 0
-2010 0
-2011 0
-2012 0
-2013 0
-2014 0
-2510 0
-2511 0
-2512 0
-2513 0
-2514 0
-2515 0
-2516 0
-2517 0
-2518 0
-2519 0
-2520 0
-2521 0
-2522 0
-2523 0
-2524 0
-2525 0
-2526 0
-2527 0
-2528 0
-2529 0
-2530 0
-2531 0
-2532 0
-2533 0
-2534 0
-2535 0
-2536 0
-2537 0
-2538 0
-2539 0
-2540 0
-2541 0
-2542 0
-2543 0
-2544 0
-2545 0
-2546 0
-2547 0
-2548 0
-2549 0
-2550 0
-2551 0
-2552 0
-2553 0

